0 4933.77
1 4933.77
2 4933.77
3 4933.77
4 4924.41
5 4924.41
6 4877.54
7 4877.54
8 4820.98
9 4820.98
10 4820.98
11 4820.98
12 4820.98
13 4820.98
14 4820.98
15 4797.60
16 4797.60
17 4797.60
18 4797.60
19 4797.60
20 4797.60
21 4797.60
22 4785.91
23 4785.91
24 4785.91
25 4785.91
26 4785.91
27 4785.91
28 4785.91
29 4785.91
30 4785.91
31 4785.91
32 4737.54
33 4737.54
34 4737.54
35 4737.54
36 4737.54
37 4737.54
38 4737.54
39 4737.54
40 4737.54
41 4737.54
42 4737.54
43 4737.54
44 4737.54
45 4737.54
46 4737.54
47 4737.54
48 4737.54
49 4737.54
50 4737.54
51 4737.54
52 4737.54
53 4737.54
54 4737.54
55 4701.30
56 4701.30
57 4701.30
58 4701.30
59 4701.30
60 4701.30
61 4701.30
62 4701.30
63 4699.79
64 4699.79
65 4699.79
66 4699.79
67 4699.79
68 4699.79
69 4699.79
70 4699.79
71 4699.79
72 4699.79
73 4699.79
74 4699.79
75 4699.79
76 4699.79
77 4694.50
78 4694.50
79 4694.50
80 4694.50
81 4694.50
82 4694.50
83 4694.50
84 4694.50
85 4694.50
86 4690.67
87 4690.67
88 4690.67
89 4690.67
90 4690.67
91 4690.67
92 4690.67
93 4690.67
94 4690.67
95 4690.67
96 4690.67
97 4690.67
98 4690.67
99 4690.67
100 4690.67
101 4690.67
102 4690.67
103 4690.67
104 4690.67
105 4690.67
106 4690.67
107 4690.67
108 4690.67
109 4690.67
110 4672.73
111 4672.73
112 4672.73
113 4672.73
114 4665.41
115 4665.41
116 4665.41
117 4665.41
118 4665.41
119 4665.41
120 4665.41
121 4665.41
122 4665.41
123 4665.41
124 4665.41
125 4665.41
126 4665.41
127 4665.41
128 4665.41
129 4665.41
130 4665.41
131 4665.41
132 4665.41
133 4665.41
134 4665.41
135 4665.41
136 4665.41
137 4665.41
138 4665.41
139 4665.41
140 4654.22
141 4654.22
142 4654.22
143 4654.22
144 4654.22
145 4654.22
146 4654.22
147 4654.22
148 4654.22
149 4654.22
150 4654.22
151 4654.22
152 4654.22
153 4654.22
154 4644.29
155 4644.29
156 4644.29
157 4644.29
158 4644.29
159 4644.29
160 4644.29
161 4644.29
162 4644.29
163 4644.29
164 4644.29
165 4644.29
166 4644.29
167 4644.29
168 4644.29
169 4644.29
170 4644.29
171 4644.29
172 4644.29
173 4644.29
174 4644.29
175 4644.29
176 4644.29
177 4644.29
178 4644.29
179 4644.29
180 4644.29
181 4644.29
182 4644.29
183 4644.29
184 4644.29
185 4644.29
186 4644.29
187 4644.29
188 4644.29
189 4644.29
190 4644.29
191 4644.29
192 4644.29
193 4644.29
194 4644.29
195 4644.29
196 4644.29
197 4644.29
198 4644.29
199 4644.29
200 4644.29
201 4644.29
202 4644.29
203 4644.29
204 4644.29
205 4644.29
206 4644.29
207 4644.29
208 4644.29
209 4644.29
210 4644.29
211 4644.29
212 4644.29
213 4644.29
214 4644.29
215 4644.29
216 4644.29
217 4644.29
218 4644.29
219 4644.29
220 4644.29
221 4644.29
222 4644.29
223 4644.29
224 4644.29
225 4644.29
226 4644.29
227 4644.29
228 4644.29
229 4644.29
230 4644.29
231 4644.29
232 4644.29
233 4644.29
234 4644.29
235 4644.29
236 4644.29
237 4644.29
238 4644.29
239 4644.29
240 4644.29
241 4644.29
242 4644.29
243 4644.29
244 4644.29
245 4644.29
246 4644.29
247 4644.29
248 4644.29
249 4644.29
250 4644.29
251 4644.29
252 4644.29
253 4644.29
254 4644.29
255 4644.29
256 4644.29
257 4644.29
258 4644.29
259 4644.29
260 4644.29
261 4644.29
262 4644.29
263 4644.29
264 4644.29
265 4644.29
266 4644.29
267 4644.29
268 4644.29
269 4644.29
270 4644.29
271 4644.29
272 4644.29
273 4644.29
274 4644.29
275 4644.29
276 4644.29
277 4644.29
278 4644.29
279 4644.29
280 4644.29
281 4644.29
282 4644.29
283 4644.29
284 4644.29
285 4644.29
286 4644.29
287 4644.29
288 4644.29
289 4644.29
290 4644.29
291 4644.29
292 4644.29
293 4644.29
294 4644.29
295 4644.29
296 4644.29
297 4644.29
298 4644.29
299 4644.29
300 4644.29
301 4644.29
302 4644.29
303 4644.29
304 4644.29
305 4644.29
306 4644.29
307 4644.29
308 4644.29
309 4644.29
310 4644.29
311 4644.29
312 4644.29
313 4644.29
314 4644.29
315 4644.29
316 4644.29
317 4644.29
318 4644.29
319 4644.29
320 4644.29
321 4644.29
322 4644.29
323 4644.29
324 4644.29
325 4644.29
326 4644.29
327 4644.29
328 4644.29
329 4644.29
330 4644.29
331 4644.29
332 4644.29
333 4644.29
334 4644.29
335 4644.29
336 4644.29
337 4644.29
338 4644.29
339 4644.29
340 4644.29
341 4644.29
342 4644.29
343 4644.29
344 4644.29
345 4644.29
346 4644.29
347 4644.29
348 4644.29
349 4644.29
350 4644.29
351 4644.29
352 4644.29
353 4644.29
354 4644.29
355 4644.29
356 4644.29
357 4644.29
358 4644.29
359 4644.29
360 4644.29
361 4644.29
362 4644.29
363 4644.29
364 4644.29
365 4644.29
366 4644.29
367 4644.29
368 4644.29
369 4644.29
370 4644.29
371 4644.29
372 4644.29
373 4644.29
374 4644.29
375 4644.29
376 4644.29
377 4644.29
378 4644.29
379 4644.29
380 4644.29
381 4644.29
382 4644.29
383 4644.29
384 4644.29
385 4644.29
386 4644.29
387 4644.29
388 4644.29
389 4644.29
390 4644.29
391 4644.29
392 4644.29
393 4644.29
394 4644.29
395 4644.29
396 4644.29
397 4644.29
398 4644.29
399 4644.29
400 4644.29
401 4644.29
402 4644.29
403 4644.29
404 4644.29
405 4644.29
406 4644.29
407 4644.29
408 4644.29
409 4644.29
410 4644.29
411 4644.29
412 4644.29
413 4644.29
414 4644.29
415 4644.29
416 4644.29
417 4644.29
418 4644.29
419 4644.29
420 4644.29
421 4644.29
422 4644.29
423 4644.29
424 4644.29
425 4644.29
426 4644.29
427 4644.29
428 4644.29
429 4644.29
430 4644.29
431 4644.29
432 4644.29
433 4644.29
434 4644.29
435 4644.29
436 4644.29
437 4644.29
438 4644.29
439 4644.29
440 4644.29
441 4644.29
442 4644.29
443 4644.29
444 4644.29
445 4644.29
446 4644.29
447 4644.29
448 4644.29
449 4644.29
450 4644.29
451 4644.29
452 4644.29
453 4644.29
454 4644.29
455 4644.29
456 4644.29
457 4644.29
458 4644.29
459 4644.29
460 4644.29
461 4644.29
462 4644.29
463 4644.29
464 4644.29
465 4644.29
466 4644.29
467 4644.29
468 4644.29
469 4644.29
470 4644.29
471 4644.29
472 4644.29
473 4644.29
474 4644.29
475 4644.29
476 4644.29
477 4644.29
478 4644.29
479 4644.29
480 4644.29
481 4644.29
482 4644.29
483 4644.29
484 4644.29
485 4644.29
486 4644.29
487 4644.29
488 4644.29
489 4644.29
490 4644.29
491 4644.29
492 4644.29
493 4644.29
494 4644.29
495 4644.29
496 4644.29
497 4644.29
498 4644.29
499 4644.29
2 4 8 5 0 0 